100
150
105
104
103
103
102
101
101
100
99
97
97
96
96
96
96
95
95
93
91
91
91
91
89
88
87
87
87
85
84
84
84
84
84
83
83
83
82
82
81
81
81
80
79
79
78
78
77
77
76
76
76
76
75
74
74
73
72
71
69
65
65
65
64
60
60
59
58
55
54
54
53
53
53
51
51
51
51
51
50
50
48
48
46
44
44
43
43
41
40
40
40
39
39
37
37
34
34
33
33
30
